169
88
124
172
148
132
267
230
246
269
213
233
341
342
256
312
374
131
109
153
116
179
236
258
125
149
139
256
172
261
203
189
155
175
210
195
162
120
118
190
334
238
170
121
152
231
302
399
308
159
78
185
356
169
65
220
144
161
165
77
170
206
158
296
177
412
99
284
162
71
410
157
222
255
137
201
144
159
148
211
213
170
246
65
0
305
171
85
147
296
127
220
143
200
180
176
220
144
155
91
